(declare-const term_to_project_onto Real)
(declare-const param0 Int)
(declare-const term_to_project_onto4 Real)
(declare-const return@width Int)
(declare-const term_to_project_onto5 Real)
(declare-const param0@width Int)
(declare-const term_to_project_onto2 Real)
(declare-const term_to_project_onto3 Real)
(declare-const term_to_project_onto1 Real)
(declare-const term_to_project_onto0 Real)
(declare-const return@pos Int)
(declare-const param0@pos Int)
(declare-const return Int)
(assert (exists
         ((|param0@width'?1| Int) (|return@width'?2| Int)
            (|param0@pos'?3| Int) (|return@pos'?4| Int) (|param0'?5| Int)
            (|return'?6| Int) (|x'?7| Int) (type_err?8 Int) (type_err?9 Int)
            (type_err?10 Int) (type_err?11 Int) (x?12 Int))
         (and (<= (+ x?12 -268435454) 0)
                (= (+ (- type_err?10) |param0@width'?1|) 0)
                (= (+ (- type_err?8) |return@width'?2|) 0)
                (= (+ (- type_err?11) |param0@pos'?3|) 0)
                (= (+ (- type_err?9) |return@pos'?4|) 0)
                (= (+ |param0'?5| (- x?12)) 0)
                (= (+ |return'?6| (- x?12) -2) 0)
                (= (+ |x'?7| (- x?12) -2) 0)
                (= term_to_project_onto5 (+ |x'?7| (- x?12)))
                (= term_to_project_onto4 (+ |return'?6| (- return)))
                (= term_to_project_onto3 (+ |param0'?5| (- param0)))
                (= term_to_project_onto2 (+ |return@pos'?4| (- return@pos)))
                (= term_to_project_onto1 (+ |param0@pos'?3| (- param0@pos)))
                (= term_to_project_onto0 (+ |return@width'?2|
                                              (- return@width)))
                (= term_to_project_onto (+ |param0@width'?1| (- param0@width))))))
(check-sat)
